(set-logic QF_S)
(declare-fun var0 () String)
(assert (RegexIn var0 (RegexConcat (RegexStar (RegexUnion (Str2Reg "00") (Str2Reg "111"))) (RegexConcat (RegexUnion (RegexUnion (Str2Reg "22") (Str2Reg "33")) (RegexUnion (Str2Reg "444") (Str2Reg "55"))) (RegexConcat (RegexStar (RegexPlus (Str2Reg "666"))) (RegexConcat (RegexStar (RegexPlus (Str2Reg "7"))) (RegexConcat (RegexUnion (RegexPlus (Str2Reg "8")) (RegexPlus (Str2Reg "999"))) (RegexConcat (RegexPlus (RegexStar (Str2Reg "aa"))) (RegexConcat (RegexUnion (RegexStar (Str2Reg "bb")) (RegexStar (Str2Reg "cc"))) (RegexConcat (RegexPlus (RegexStar (Str2Reg "dd"))) (RegexConcat (RegexUnion (RegexStar (Str2Reg "ee")) (RegexStar (Str2Reg "ff"))) (RegexConcat (RegexPlus (RegexPlus (Str2Reg "ggg"))) (RegexConcat (RegexUnion (RegexPlus (Str2Reg "hhh")) (RegexPlus (Str2Reg "i"))) (RegexConcat (RegexPlus (RegexStar (Str2Reg "jjj"))) (RegexConcat (RegexUnion (RegexStar (Str2Reg "kk")) (RegexStar (Str2Reg "lll"))) (RegexConcat (RegexPlus (RegexStar (Str2Reg "m"))) (RegexConcat (RegexPlus (RegexUnion (Str2Reg "nn") (Str2Reg "o"))) (RegexConcat (RegexPlus (RegexPlus (Str2Reg "ppp"))) (RegexConcat (RegexUnion (RegexPlus (Str2Reg "qq")) (RegexPlus (Str2Reg "rrr"))) (RegexConcat (RegexStar (RegexPlus (Str2Reg "ss"))) (RegexConcat (RegexStar (RegexPlus (Str2Reg "t"))) (RegexConcat (RegexPlus (RegexUnion (Str2Reg "uu") (Str2Reg "vvv"))) (RegexConcat (RegexPlus (RegexUnion (Str2Reg "www") (Str2Reg "x"))) (RegexConcat (RegexUnion (RegexUnion (Str2Reg "y") (Str2Reg "z")) (RegexUnion (Str2Reg "AAA") (Str2Reg "B"))) (RegexConcat (RegexPlus (RegexPlus (Str2Reg "CCC"))) (RegexConcat (RegexPlus (RegexUnion (Str2Reg "D") (Str2Reg "EEE"))) (RegexConcat (RegexPlus (RegexPlus (Str2Reg "F"))) (RegexConcat (RegexUnion (RegexStar (Str2Reg "G")) (RegexStar (Str2Reg "HHH"))) (RegexConcat (RegexPlus (RegexUnion (Str2Reg "III") (Str2Reg "JJJ"))) (RegexConcat (RegexUnion (RegexStar (Str2Reg "K")) (RegexStar (Str2Reg "LL"))) (RegexConcat (RegexStar (RegexStar (Str2Reg "MM"))) (RegexConcat (RegexPlus (RegexUnion (Str2Reg "NN") (Str2Reg "OOO"))) (RegexConcat (RegexUnion (RegexStar (Str2Reg "P")) (RegexStar (Str2Reg "QQQ"))) (RegexConcat (RegexUnion (RegexUnion (Str2Reg "RRR") (Str2Reg "S")) (RegexUnion (Str2Reg "T") (Str2Reg "U"))) (RegexConcat (RegexUnion (RegexUnion (Str2Reg "VVV") (Str2Reg "WWW")) (RegexUnion (Str2Reg "XXX") (Str2Reg "YYY"))) (RegexConcat (RegexStar (RegexUnion (Str2Reg "ZZZ") (Str2Reg "!"))) (RegexConcat (RegexStar (RegexUnion (Str2Reg "\"") (Str2Reg "###"))) (RegexConcat (RegexStar (RegexUnion (Str2Reg "$$") (Str2Reg "%%"))) (RegexConcat (RegexUnion (RegexPlus (Str2Reg "&&&")) (RegexPlus (Str2Reg "'"))) (RegexConcat (RegexUnion (RegexPlus (Str2Reg "(")) (RegexPlus (Str2Reg ")))"))) (RegexConcat (RegexPlus (RegexStar (Str2Reg "*"))) (RegexConcat (RegexUnion (RegexPlus (Str2Reg "+++")) (RegexPlus (Str2Reg ","))) (RegexConcat (RegexUnion (RegexPlus (Str2Reg "---")) (RegexPlus (Str2Reg ".."))) (RegexConcat (RegexUnion (RegexStar (Str2Reg "//")) (RegexStar (Str2Reg ":::"))) (RegexConcat (RegexPlus (RegexStar (Str2Reg ";;;"))) (RegexConcat (RegexStar (RegexPlus (Str2Reg "<<"))) (RegexConcat (RegexUnion (RegexUnion (Str2Reg "==") (Str2Reg ">>>")) (RegexUnion (Str2Reg "?") (Str2Reg "@"))) (RegexConcat (RegexStar (RegexUnion (Str2Reg "[[") (Str2Reg "\\"))) (RegexConcat (RegexStar (RegexUnion (Str2Reg "]") (Str2Reg "^"))) (RegexConcat (RegexStar (RegexUnion (Str2Reg "__") (Str2Reg "```"))) (RegexConcat (RegexStar (RegexPlus (Str2Reg "{{{"))) (RegexConcat (RegexUnion (RegexStar (Str2Reg "|")) (RegexStar (Str2Reg "}}"))) (RegexConcat (RegexPlus (RegexStar (Str2Reg "~"))) (RegexConcat (RegexUnion (RegexStar (Str2Reg "0")) (RegexStar (Str2Reg "11"))) (RegexConcat (RegexStar (RegexStar (Str2Reg "222"))) (RegexConcat (RegexUnion (RegexStar (Str2Reg "3")) (RegexStar (Str2Reg "44"))) (RegexConcat (RegexPlus (RegexUnion (Str2Reg "5") (Str2Reg "6"))) (RegexConcat (RegexStar (RegexUnion (Str2Reg "7") (Str2Reg "88"))) (RegexConcat (RegexUnion (RegexStar (Str2Reg "999")) (RegexStar (Str2Reg "aaa"))) (RegexConcat (RegexPlus (RegexStar (Str2Reg "bbb"))) (RegexConcat (RegexStar (RegexUnion (Str2Reg "ccc") (Str2Reg "dd"))) (RegexConcat (RegexStar (RegexStar (Str2Reg "ee"))) (RegexConcat (RegexUnion (RegexStar (Str2Reg "f")) (RegexStar (Str2Reg "ggg"))) (RegexConcat (RegexUnion (RegexStar (Str2Reg "hh")) (RegexStar (Str2Reg "iii"))) (RegexConcat (RegexUnion (RegexUnion (Str2Reg "jj") (Str2Reg "k")) (RegexUnion (Str2Reg "ll") (Str2Reg "mm"))) (RegexConcat (RegexUnion (RegexUnion (Str2Reg "nn") (Str2Reg "ooo")) (RegexUnion (Str2Reg "pp") (Str2Reg "qqq"))) (RegexConcat (RegexUnion (RegexStar (Str2Reg "rr")) (RegexStar (Str2Reg "s"))) (RegexConcat (RegexUnion (RegexUnion (Str2Reg "ttt") (Str2Reg "u")) (RegexUnion (Str2Reg "v") (Str2Reg "www"))) (RegexConcat (RegexStar (RegexPlus (Str2Reg "xx"))) (RegexConcat (RegexPlus (RegexPlus (Str2Reg "y"))) (RegexConcat (RegexStar (RegexPlus (Str2Reg "z"))) (RegexConcat (RegexStar (RegexStar (Str2Reg "AA"))) (RegexConcat (RegexStar (RegexPlus (Str2Reg "B"))) (RegexConcat (RegexUnion (RegexUnion (Str2Reg "C") (Str2Reg "DD")) (RegexUnion (Str2Reg "EEE") (Str2Reg "F"))) (RegexConcat (RegexPlus (RegexStar (Str2Reg "GGG"))) (RegexConcat (RegexStar (RegexPlus (Str2Reg "HHH"))) (RegexConcat (RegexUnion (RegexPlus (Str2Reg "I")) (RegexPlus (Str2Reg "J"))) (RegexConcat (RegexPlus (RegexStar (Str2Reg "KK"))) (RegexConcat (RegexStar (RegexUnion (Str2Reg "LL") (Str2Reg "M"))) (RegexConcat (RegexUnion (RegexStar (Str2Reg "NN")) (RegexStar (Str2Reg "O"))) (RegexConcat (RegexStar (RegexUnion (Str2Reg "P") (Str2Reg "QQ"))) (RegexConcat (RegexUnion (RegexStar (Str2Reg "R")) (RegexStar (Str2Reg "SS"))) (RegexConcat (RegexStar (RegexStar (Str2Reg "T"))) (RegexConcat (RegexPlus (RegexPlus (Str2Reg "U"))) (RegexConcat (RegexUnion (RegexUnion (Str2Reg "VV") (Str2Reg "WWW")) (RegexUnion (Str2Reg "XXX") (Str2Reg "YY"))) (RegexConcat (RegexStar (RegexUnion (Str2Reg "ZZ") (Str2Reg "!!!"))) (RegexConcat (RegexUnion (RegexPlus (Str2Reg "\"\"\"")) (RegexPlus (Str2Reg "#"))) (RegexConcat (RegexPlus (RegexUnion (Str2Reg "$") (Str2Reg "%%"))) (RegexConcat (RegexPlus (RegexUnion (Str2Reg "&&") (Str2Reg "'''"))) (RegexConcat (RegexStar (RegexStar (Str2Reg "((("))) (RegexConcat (RegexStar (RegexUnion (Str2Reg ")") (Str2Reg "*"))) (RegexConcat (RegexPlus (RegexStar (Str2Reg "+++"))) (RegexConcat (RegexUnion (RegexPlus (Str2Reg ",")) (RegexPlus (Str2Reg "--"))) (RegexConcat (RegexUnion (RegexStar (Str2Reg ".")) (RegexStar (Str2Reg "//"))) (RegexConcat (RegexUnion (RegexPlus (Str2Reg "::")) (RegexPlus (Str2Reg ";;;"))) (RegexConcat (RegexPlus (RegexPlus (Str2Reg "<<<"))) (RegexConcat (RegexUnion (RegexStar (Str2Reg "=")) (RegexStar (Str2Reg ">"))) (RegexConcat (RegexUnion (RegexStar (Str2Reg "?")) (RegexStar (Str2Reg "@@"))) (RegexConcat (RegexUnion (RegexUnion (Str2Reg "[[") (Str2Reg "\\\\\\")) (RegexUnion (Str2Reg "]") (Str2Reg "^^^"))) (RegexConcat (RegexStar (RegexPlus (Str2Reg "__"))) (RegexConcat (RegexUnion (RegexPlus (Str2Reg "``")) (RegexPlus (Str2Reg "{{{"))) (RegexConcat (RegexPlus (RegexPlus (Str2Reg "|"))) (RegexConcat (RegexPlus (RegexUnion (Str2Reg "}}}") (Str2Reg "~"))) (RegexConcat (RegexUnion (RegexStar (Str2Reg "0")) (RegexStar (Str2Reg "111"))) (RegexConcat (RegexStar (RegexUnion (Str2Reg "222") (Str2Reg "3"))) (RegexConcat (RegexUnion (RegexStar (Str2Reg "444")) (RegexStar (Str2Reg "55"))) (RegexConcat (RegexUnion (RegexPlus (Str2Reg "666")) (RegexPlus (Str2Reg "777"))) (RegexUnion (RegexUnion (Str2Reg "88") (Str2Reg "9")) (RegexUnion (Str2Reg "a") (Str2Reg "bbb"))))))))))))))))))))))))))))))))))))))))))))))))))))))))))))))))))))))))))))))))))))))))))))))))))))))))))))))
(check-sat)